"","Test","illnessratio","illnessday","chronicratio"
"1","Shapiro-Wilk",0.000363623820232499,0.00314070720011852,0.0905892389580949
"2","Pearson Chi-square",0.320852604906433,0.00130017418109432,0.371158979247046
"3","Lilliefor",0.0070280247651898,0.00159058535064958,0.320771388849123
"4","Anderson-Darling",0.000649676486998646,0.00111919428956562,0.256027625115983
"5","Cramer-von Mises",0.00236631837340044,0.00243064311353651,0.294714353361127
