"","Test","illnessratio","illnessday","chronicratio"
"1","Shapiro-Wilk",0.000281230129445593,0.00180205074399282,0.424821600325567
"2","Pearson Chi-square",0.0121162061907711,0.0154810871615606,0.337147669026357
"3","Kolmogorov-Smirnov",0.000294244392901979,0.00332593454074647,0.34802186974896
"4","Anderson-Darling",9.70774711643503e-05,0.00121248342346786,0.404570409954187
"5","Cramer-von Mises",0.000108517814114954,0.0021610932525884,0.399235615418767
