"","Test","illnessratio","illnessday","chronicratio"
"1","Shapiro-Wilk",0.000149864660298201,0.0110250440855155,0.173206778467826
"2","Pearson Chi-square",0.00321221548011889,0.305049285044899,0.73380891447664
"3","Lilliefor",0.00244420410274537,0.0178973468164937,0.168518910330128
"4","Anderson-Darling",0.000663175564663166,0.00682643959385399,0.190286399592708
"5","Cramer-von Mises",0.000980304214836299,0.0168099378150141,0.281783750250732
