"","Test","OUTP1M_RATIO","CHRONIC_RATIO"
"1","Shapiro-Wilk",0.00750117595102712,0.902609834250345
"2","Pearson Chi-square",0.545865660445,0.887874441557736
"3","Lilliefor",0.172708276496826,0.949673975834693
"4","Anderson-Darling",0.0560685557680018,0.931009055929889
"5","Cramer-von Mises",0.078610523364691,0.948011066629827
