"","Test","OUTP1M_RATIO","CHRONIC_RATIO"
"1","Shapiro-Wilk",0.0540479671973576,0.151201646857263
"2","Pearson Chi-square",0.304173258231689,0.569444051410639
"3","Lilliefor",0.218993926088123,0.400766825908535
"4","Anderson-Darling",0.0895483437785324,0.134203105071535
"5","Cramer-von Mises",0.12364447498995,0.238952028474578
