"","Test","OUTP1M_RATIO","CHRONIC_RATIO"
"1","Shapiro-Wilk",0.0277585143376191,0.0562618375634035
"2","Pearson Chi-square",0.746155985964913,0.80127777883916
"3","Lilliefor",0.244299655649979,0.2026144961445
"4","Anderson-Darling",0.0943661514009098,0.117435132936012
"5","Cramer-von Mises",0.0913178254587438,0.138767402304509
