"","Test","OUTP1M_RATIO","CHRONIC_RATIO"
"1","Shapiro-Wilk",0.000527410357434613,2.97289737923943e-05
"2","Pearson Chi-square",0.361565382940774,0.0144455707540248
"3","Kolmogorov-Smirnov",0.0897817383893763,0.00142764921001448
"4","Anderson-Darling",0.0227919728385123,5.51923418418413e-05
"5","Cramer-von Mises",0.0306693965391581,0.000119795341998094
